(set-logic ALL)
(set-option :produce-models true)
(set-option :parse-transducers true)
(define-fun-rec toLower ((x String) (y String)) Bool
   (or (and (= x "") (= y ""))
       (and (not (= x "")) (not (= y ""))
           (= (char.code (str.head y))
               (ite (and (<= 65 (char.code (str.head x)))
                       (<= (char.code (str.head x)) 90))
                   (+ (char.code (str.head x)) 32)
                   (char.code (str.head x))))
           (toLower (str.tail x) (str.tail y))))
)
(declare-fun sym609 () String)
(declare-fun sym403 () String)
(declare-fun sym205 () String)
(declare-fun sym689 () String)
(declare-fun sym328 () String)
(declare-fun sym561 () String)
(declare-fun sym289 () String)
(declare-fun sym443 () String)
(declare-fun sym367 () String)
(declare-fun sym489 () String)
(declare-fun sym643 () String)
(declare-fun sym523 () String)
(declare-fun sym160 () String)
(declare-fun sym733 () String)
(declare-fun sym459 () String)
(declare-fun sym619 () String)
(declare-fun sym175 () String)
(declare-fun sym254 () String)
(declare-fun sym299 () String)
(declare-fun sym377 () String)
(declare-fun sym135 () String)
(declare-fun sym575 () String)
(declare-fun sym653 () String)
(declare-fun sym499 () String)
(declare-fun sym533 () String)
(declare-fun sym215 () String)
(declare-fun sym413 () String)
(declare-fun sym699 () String)
(declare-fun sym709 () String)
(declare-fun sym20 () String)
(declare-fun sym469 () String)
(declare-fun sym547 () String)
(declare-fun sym264 () String)
(declare-fun sym342 () String)
(declare-fun sym585 () String)
(declare-fun sym387 () String)
(declare-fun sym663 () String)
(declare-fun sym225 () String)
(declare-fun sym423 () String)
(declare-fun sym743 () String)
(declare-fun sym185 () String)
(declare-fun sym719 () String)
(declare-fun sym513 () String)
(declare-fun sym239 () String)
(declare-fun sym679 () String)
(declare-fun sym352 () String)
(declare-fun sym113 () String)
(declare-fun sym433 () String)
(declare-fun sym279 () String)
(declare-fun sym599 () String)
(declare-fun sym753 () String)
(declare-fun sym313 () String)
(declare-fun sym479 () String)
(declare-fun sym633 () String)
(declare-fun sym150 () String)
(declare-fun sym195 () String)
(define-fun Alphabet () RegLan 
	(re.* (re.union (str.to_re "A") (str.to_re "B") (str.to_re "C") (str.to_re "D") (str.to_re "E") (str.to_re "F") (str.to_re "G") (str.to_re "H") (str.to_re "I") (str.to_re "J") (str.to_re "K") (str.to_re "L") (str.to_re "M") (str.to_re "N") (str.to_re "O") (str.to_re "P") (str.to_re "Q") (str.to_re "R") (str.to_re "S") (str.to_re "T") (str.to_re "U") (str.to_re "V") (str.to_re "W") (str.to_re "X") (str.to_re "Y") (str.to_re "Z") (str.to_re "a") (str.to_re "b") (str.to_re "c") (str.to_re "d") (str.to_re "e") (str.to_re "f") (str.to_re "g") (str.to_re "h") (str.to_re "i") (str.to_re "j") (str.to_re "k") (str.to_re "l") (str.to_re "m") (str.to_re "n") (str.to_re "o") (str.to_re "p") (str.to_re "q") (str.to_re "r") (str.to_re "s") (str.to_re "t") (str.to_re "u") (str.to_re "v") (str.to_re "w") (str.to_re "x") (str.to_re "y") (str.to_re "z") ))
)
(declare-fun L80  () String)
(assert (toLower sym328  L80 ))
(declare-fun L84  () String)
(assert (toLower sym533  L84 ))
(declare-fun L2  () String)
(assert (toLower sym479  L2 ))
(declare-fun L72  () String)
(assert (toLower sym633  L72 ))
(declare-fun L60  () String)
(assert (toLower sym299  L60 ))
(declare-fun L92  () String)
(assert (toLower sym753  L92 ))
(declare-fun L88  () String)
(assert (toLower sym367  L88 ))
(declare-fun L6  () String)
(assert (toLower sym113  L6 ))
(declare-fun L76  () String)
(assert (toLower sym679  L76 ))
(declare-fun L64  () String)
(assert (toLower sym225  L64 ))
(declare-fun L20  () String)
(assert (toLower sym215  L20 ))
(declare-fun L96  () String)
(assert (toLower sym313  L96 ))
(declare-fun L52  () String)
(assert (toLower sym733  L52 ))
(declare-fun L68  () String)
(assert (toLower sym643  L68 ))
(declare-fun L24  () String)
(assert (toLower sym547  L24 ))
(declare-fun L56  () String)
(assert (toLower sym653  L56 ))
(declare-fun L12  () String)
(assert (toLower sym609  L12 ))
(declare-fun L28  () String)
(assert (toLower sym150  L28 ))
(declare-fun L16  () String)
(assert (toLower sym377  L16 ))
(declare-fun L100  () String)
(assert (toLower sym499  L100 ))
(declare-fun L61  () String)
(assert (toLower "field"  L61 ))
(declare-fun L1  () String)
(assert (toLower "name"  L1 ))
(declare-fun L33  () String)
(assert (toLower sym403  L33 ))
(declare-fun L108  () String)
(assert (toLower sym619  L108 ))
(declare-fun L65  () String)
(assert (toLower "table"  L65 ))
(declare-fun L5  () String)
(assert (toLower "length"  L5 ))
(declare-fun L41  () String)
(assert (toLower sym205  L41 ))
(declare-fun L37  () String)
(assert (toLower sym264  L37 ))
(declare-fun L104  () String)
(assert (toLower sym342  L104 ))
(declare-fun L9  () String)
(assert (toLower "description"  L9 ))
(declare-fun L45  () String)
(assert (toLower sym689  L45 ))
(declare-fun L90  () String)
(assert (toLower sym352  L90 ))
(declare-fun L0  () String)
(assert (toLower sym239  L0 ))
(declare-fun L62  () String)
(assert (toLower sym663  L62 ))
(declare-fun L94  () String)
(assert (toLower sym254  L94 ))
(declare-fun L50  () String)
(assert (toLower sym413  L50 ))
(declare-fun L82  () String)
(assert (toLower sym469  L82 ))
(declare-fun L4  () String)
(assert (toLower sym489  L4 ))
(declare-fun L70  () String)
(assert (toLower sym433  L70 ))
(declare-fun L66  () String)
(assert (toLower sym513  L66 ))
(declare-fun L22  () String)
(assert (toLower sym135  L22 ))
(declare-fun L98  () String)
(assert (toLower sym699  L98 ))
(declare-fun L54  () String)
(assert (toLower sym387  L54 ))
(declare-fun L10  () String)
(assert (toLower sym719  L10 ))
(declare-fun L86  () String)
(assert (toLower sym279  L86 ))
(declare-fun L8  () String)
(assert (toLower sym289  L8 ))
(declare-fun L74  () String)
(assert (toLower sym523  L74 ))
(declare-fun L30  () String)
(assert (toLower sym20  L30 ))
(declare-fun L26  () String)
(assert (toLower sym185  L26 ))
(declare-fun L58  () String)
(assert (toLower sym599  L58 ))
(declare-fun L14  () String)
(assert (toLower sym160  L14 ))
(declare-fun L78  () String)
(assert (toLower sym195  L78 ))
(declare-fun L18  () String)
(assert (toLower sym743  L18 ))
(declare-fun L102  () String)
(assert (toLower sym423  L102 ))
(declare-fun L110  () String)
(assert (toLower sym709  L110 ))
(declare-fun L3  () String)
(assert (toLower "type"  L3 ))
(declare-fun L11  () String)
(assert (toLower "option"  L11 ))
(declare-fun L43  () String)
(assert (toLower sym443  L43 ))
(declare-fun L31  () String)
(assert (toLower sym561  L31 ))
(declare-fun L7  () String)
(assert (toLower "database"  L7 ))
(declare-fun L47  () String)
(assert (toLower sym459  L47 ))
(declare-fun L35  () String)
(assert (toLower sym585  L35 ))
(declare-fun L106  () String)
(assert (toLower sym175  L106 ))
(declare-fun L39  () String)
(assert (toLower sym575  L39 ))

(assert (str.in_re sym195 Alphabet))
(assert (str.in_re sym150 Alphabet))
(assert (str.in_re sym633 Alphabet))
(assert (str.in_re sym479 Alphabet))
(assert (str.in_re sym313 Alphabet))
(assert (str.in_re sym753 Alphabet))
(assert (str.in_re sym599 Alphabet))
(assert (str.in_re sym279 Alphabet))
(assert (str.in_re sym433 Alphabet))
(assert (str.in_re sym113 Alphabet))
(assert (str.in_re sym352 Alphabet))
(assert (str.in_re sym679 Alphabet))
(assert (str.in_re sym239 Alphabet))
(assert (str.in_re sym513 Alphabet))
(assert (str.in_re sym719 Alphabet))
(assert (str.in_re sym185 Alphabet))
(assert (str.in_re sym743 Alphabet))
(assert (str.in_re sym423 Alphabet))
(assert (str.in_re sym225 Alphabet))
(assert (str.in_re sym663 Alphabet))
(assert (str.in_re sym387 Alphabet))
(assert (str.in_re sym585 Alphabet))
(assert (str.in_re sym342 Alphabet))
(assert (str.in_re sym264 Alphabet))
(assert (str.in_re sym547 Alphabet))
(assert (str.in_re sym469 Alphabet))
(assert (str.in_re sym20 Alphabet))
(assert (str.in_re sym709 Alphabet))
(assert (str.in_re sym699 Alphabet))
(assert (str.in_re sym413 Alphabet))
(assert (str.in_re sym215 Alphabet))
(assert (str.in_re sym533 Alphabet))
(assert (str.in_re sym499 Alphabet))
(assert (str.in_re sym653 Alphabet))
(assert (str.in_re sym575 Alphabet))
(assert (str.in_re sym135 Alphabet))
(assert (str.in_re sym377 Alphabet))
(assert (str.in_re sym299 Alphabet))
(assert (str.in_re sym254 Alphabet))
(assert (str.in_re sym175 Alphabet))
(assert (str.in_re sym619 Alphabet))
(assert (str.in_re sym459 Alphabet))
(assert (str.in_re sym733 Alphabet))
(assert (str.in_re sym160 Alphabet))
(assert (str.in_re sym523 Alphabet))
(assert (str.in_re sym643 Alphabet))
(assert (str.in_re sym489 Alphabet))
(assert (str.in_re sym367 Alphabet))
(assert (str.in_re sym443 Alphabet))
(assert (str.in_re sym289 Alphabet))
(assert (str.in_re sym561 Alphabet))
(assert (str.in_re sym328 Alphabet))
(assert (str.in_re sym689 Alphabet))
(assert (str.in_re sym205 Alphabet))
(assert (str.in_re sym403 Alphabet))
(assert (str.in_re sym609 Alphabet))
(assert (= L0 L1 ))
(assert (not (= L2 L3 )))
(assert (not (= L4 L5 )))
(assert (= L6 L7 ))
(assert (not (= L8 L9 )))
(assert (= L10 L11 ))
(assert (not (= L12 L9 )))
(assert (= L14 L9 ))
(assert (not (= L16 L9 )))
(assert (not (= L18 L9 )))
(assert (not (= L20 L9 )))
(assert (= L22 L1 ))
(assert (= L24 L1 ))
(assert (not (= L26 L9 )))
(assert (not (= L28 L1 )))
(assert (not (= L30 "sql" )))
(assert (= L31 L1 ))
(assert (not (= L33 L1 )))
(assert (= L35 L9 ))
(assert (= L37 L9 ))
(assert (not (= L39 L1 )))
(assert (not (= L41 L1 )))
(assert (= L43 L11 ))
(assert (not (= L45 L9 )))
(assert (not (= L47 L1 )))
(assert (= L30 "html" ))
(assert (not (= L50 L9 )))
(assert (not (= L52 L1 )))
(assert (= L54 L3 ))
(assert (not (= L56 L3 )))
(assert (not (= L58 L1 )))
(assert (= L60 L61 ))
(assert (= L62 L5 ))
(assert (= L64 L65 ))
(assert (not (= L66 L1 )))
(assert (not (= L68 L9 )))
(assert (not (= L70 L5 )))
(assert (not (= L72 L1 )))
(assert (not (= L74 L9 )))
(assert (not (= L76 L1 )))
(assert (not (= L78 L65 )))
(assert (= L80 L1 ))
(assert (not (= L82 L9 )))
(assert (= L84 L61 ))
(assert (not (= L86 L1 )))
(assert (not (= L88 L1 )))
(assert (= L90 L9 ))
(assert (not (= L92 L61 )))
(assert (not (= L94 L1 )))
(assert (= L96 L1 ))
(assert (not (= L98 L3 )))
(assert (= L100 L11 ))
(assert (not (= L102 L3 )))
(assert (not (= L104 L1 )))
(assert (not (= L106 L1 )))
(assert (= L108 L3 ))
(assert (not (= L110 L5 )))
(check-sat)
(get-model)
(exit)
